c 1 ElsaRR/elsaRR.splot.xml
c 2 Plugins
c 3 Themes
c 4 Admin_user
c 5 Uploader_plugin
c 6 Magn_html5_drag_and_drop_media_uploader_plugin
c 7 Wp_powerplaygallery_plugin
c 8 Php_analytics_plugin
c 9 Wp_filemanager_plugin
c 10 Font_uploader_plugin
c 11 Smart_slide_show_plugin
c 12 Wp_image_news_slider_plugin
c 13 Php_shell_plugin
c 14 Front_end_upload_plugin
c 15 Asset_manager_plugin
c 16 Rent_a_car_plugin
c 17 Pdw_file_browser_plugin
c 18 Annonces_plugin
c 19 Wp_3dflick_slideshow_plugin
c 20 Wp_levoslideshow_plugin
c 21 Thecartpress_plugin
c 22 Wp_z1_plugin
c 23 Rich_widget_plugin
c 24 Videowhisper_video_presentation_plugin
c 25 Omni_secure_files_plugin
c 26 Islidex_plugin
c 27 Contus_video_galleryversion_10_plugin
c 28 Drag_drop_file_uploader_plugin
c 29 Lisl_last_image_slider_plugin
c 30 Wp_royal_gallery_plugin
c 31 Open_flash_chart_core_wordpress_plugin_plugin
c 32 Invit0r_plugin
c 33 Front_file_manager_plugin
c 34 Picturesurf_gallery_plugin
c 35 Wpstorecart_plugin
c 36 A1_flash_gallery_plugin
c 37 Wp_file_uploader_plugin
c 38 Backwpup_plugin
c 39 Mini_mail_dashboard_widget_plugin
c 40 Mod_menu1_plugin
c 41 Spamtask_plugin
c 42 Wp_z_plugin
c 43 Zingiri_web_shop_plugin
c 44 Resume_submissions_job_postings_plugin
c 45 Chikuncount_plugin
c 46 Mm_forms_community_plugin
c 47 Akismet_plugin
c 48 Downloads_manager_plugin
c 49 Simple_dropbox_upload_form_plugin
c 50 Cac_featured_content_plugin
c 51 Category_grid_view_gallery_plugin
c 52 Monsters_editor_10_for_wp_super_edit_plugin
c 53 Wp_homepage_slideshow_plugin
c 54 Extend_wordpress_plugin
c 55 Lb_mixed_slideshow_plugin
c 56 Rbxgallery_plugin
c 57 Advanced_custom_fields_plugin
c 58 Videowhisper_video_conference_integration_plugin
c 59 Tell_a_friend_plugin
c 60 Map_wid_plugin
c 61 Wp_property_plugin
c 62 Is_human_plugin
c 63 Evarisk_plugin
c 64 Wp_mailinglist_plugin
c 65 Gallery_plugin_plugin
c 66 Dp_thumbnail_plugin
c 67 Hungred_post_thumbnail_plugin
c 68 Clockstone_theme
c 69 Deep_blue_theme
c 70 OptimizePress_theme
p cnf 70 72
1 0
-2 1 0
-3 1 0
-4 1 0
-5 2 0
-6 2 0
-7 2 0
-8 2 0
-9 2 0
-10 2 0
-11 2 0
-12 2 0
-13 2 0
-14 2 0
-15 2 0
-16 2 0
-17 2 0
-18 2 0
-19 2 0
-20 2 0
-21 2 0
-22 2 0
-23 2 0
-24 2 0
-25 2 0
-26 2 0
-27 2 0
-28 2 0
-29 2 0
-30 2 0
-31 2 0
-32 2 0
-33 2 0
-34 2 0
-35 2 0
-36 2 0
-37 2 0
-38 2 0
-39 2 0
-40 2 0
-41 2 0
-42 2 0
-43 2 0
-44 2 0
-45 2 0
-46 2 0
-47 2 0
-48 2 0
-49 2 0
-50 2 0
-51 2 0
-52 2 0
-53 2 0
-54 2 0
-55 2 0
-56 2 0
-57 2 0
-58 2 0
-59 2 0
-60 2 0
-61 2 0
-62 2 0
-63 2 0
-64 2 0
-65 2 0
-66 2 0
-67 2 0
-2 5 6 7 8 9 10 11 12 13 14 15 16 17 18 19 20 21 22 23 24 25 26 27 28 29 30 31 32 33 34 35 36 37 38 39 40 41 42 43 44 45 46 47 48 49 50 51 52 53 54 55 56 57 58 59 60 61 62 63 64 65 66 67 0
-68 3 0
-69 3 0
-70 3 0
-3 68 69 70 0
